120
150
40
40
57
66
70
90
69
40
41
44
94
94
49
66
75
90
21
36
77
36
37
93
37
57
88
72
70
86
44
32
21
96
77
30
94
44
74
74
58
70
83
32
34
95
37
58
74
65
94
52
91
52
72
78
31
40
78
63
23
64
88
72
78
45
45
59
64
86
75
44
31
86
83
66
66
32
52
92
59
30
61
91
21
37
29
44
77
51
98
77
70
65
90
30
88
32
30
57
93
34
79
37
84
30
36
77
74
74
51
95
74
98
52
88
21
41
49
100
72
78
